(set-logic QF_UF)
(declare-fun A0 () Bool)
(declare-fun A1 () Bool)
(declare-fun A2 () Bool)
(declare-fun A3 () Bool)
(declare-fun A4 () Bool)
(declare-fun A5 () Bool)
(declare-fun A6 () Bool)
(declare-fun A7 () Bool)
(declare-fun A8 () Bool)
(declare-fun A9 () Bool)
(declare-fun A10 () Bool)
(declare-fun A11 () Bool)
(declare-fun A12 () Bool)
(declare-fun A13 () Bool)
(declare-fun A14 () Bool)
(declare-fun A15 () Bool)
(declare-fun A16 () Bool)
(declare-fun A17 () Bool)
(declare-fun A18 () Bool)
(declare-fun A19 () Bool)
(declare-fun A20 () Bool)
(declare-fun A21 () Bool)
(declare-fun A22 () Bool)
(declare-fun A23 () Bool)
(declare-fun A24 () Bool)
(assert (let ((.def_0 (not A12))) (let ((.def_1 (not A11))) (let ((.def_2 (and .def_1 .def_0))) (let ((.def_3 (not .def_2))) (let ((.def_4 (not A15))) (let ((.def_5 (not A4))) (let ((.def_6 (or .def_5 .def_4))) (let ((.def_7 (= .def_6 .def_3))) (let ((.def_8 (not A19))) (let ((.def_9 (or .def_8 .def_5))) (let ((.def_10 (not .def_9))) (let ((.def_11 (not A16))) (let ((.def_12 (or A1 .def_11))) (let ((.def_13 (not .def_12))) (let ((.def_14 (= .def_13 .def_10))) (let ((.def_15 (and .def_14 .def_7))) (let ((.def_16 (and A12 A3))) (let ((.def_17 (not .def_16))) (let ((.def_18 (or A1 A16))) (let ((.def_19 (not .def_18))) (let ((.def_20 (and .def_19 .def_17))) (let ((.def_21 (not .def_20))) (let ((.def_22 (not A24))) (let ((.def_23 (= .def_22 A15))) (let ((.def_24 (not .def_23))) (let ((.def_25 (not A7))) (let ((.def_26 (and A22 .def_25))) (let ((.def_27 (not .def_26))) (let ((.def_28 (and .def_27 .def_24))) (let ((.def_29 (or .def_28 .def_21))) (let ((.def_30 (not .def_29))) (let ((.def_31 (and .def_30 .def_15))) (let ((.def_32 (not A10))) (let ((.def_33 (or A6 .def_32))) (let ((.def_34 (or A8 .def_22))) (let ((.def_35 (or .def_34 .def_33))) (let ((.def_36 (not A14))) (let ((.def_37 (or A20 .def_36))) (let ((.def_38 (not .def_37))) (let ((.def_39 (or A23 A24))) (let ((.def_40 (or .def_39 .def_38))) (let ((.def_41 (not .def_40))) (let ((.def_42 (= .def_41 .def_35))) (let ((.def_43 (not .def_42))) (let ((.def_44 (and A18 A15))) (let ((.def_45 (not A21))) (let ((.def_46 (not A23))) (let ((.def_47 (or .def_46 .def_45))) (let ((.def_48 (= .def_47 .def_44))) (let ((.def_49 (not .def_48))) (let ((.def_50 (or A21 .def_11))) (let ((.def_51 (not .def_50))) (let ((.def_52 (and A8 A4))) (let ((.def_53 (not .def_52))) (let ((.def_54 (= .def_53 .def_51))) (let ((.def_55 (not .def_54))) (let ((.def_56 (and .def_55 .def_49))) (let ((.def_57 (not .def_56))) (let ((.def_58 (or .def_57 .def_43))) (let ((.def_59 (not .def_58))) (let ((.def_60 (and .def_59 .def_31))) (let ((.def_61 (not .def_60))) (let ((.def_62 (or A17 .def_0))) (let ((.def_63 (not A9))) (let ((.def_64 (and A8 .def_63))) (let ((.def_65 (not .def_64))) (let ((.def_66 (or .def_65 .def_62))) (let ((.def_67 (and .def_46 A13))) (let ((.def_68 (not A2))) (let ((.def_69 (or .def_68 A21))) (let ((.def_70 (and .def_69 .def_67))) (let ((.def_71 (and .def_70 .def_66))) (let ((.def_72 (not A17))) (let ((.def_73 (and .def_72 .def_45))) (let ((.def_74 (and A7 .def_68))) (let ((.def_75 (not .def_74))) (let ((.def_76 (or .def_75 .def_73))) (let ((.def_77 (not .def_76))) (let ((.def_78 (or A4 .def_5))) (let ((.def_79 (or .def_8 .def_72))) (let ((.def_80 (not .def_79))) (let ((.def_81 (and .def_80 .def_78))) (let ((.def_82 (not .def_81))) (let ((.def_83 (or .def_82 .def_77))) (let ((.def_84 (not .def_83))) (let ((.def_85 (and .def_84 .def_71))) (let ((.def_86 (or A0 A1))) (let ((.def_87 (or .def_63 A13))) (let ((.def_88 (= .def_87 .def_86))) (let ((.def_89 (not .def_88))) (let ((.def_90 (and .def_4 A1))) (let ((.def_91 (= A1 A15))) (let ((.def_92 (or .def_91 .def_90))) (let ((.def_93 (not .def_92))) (let ((.def_94 (or .def_93 .def_89))) (let ((.def_95 (or A15 .def_0))) (let ((.def_96 (and A16 A19))) (let ((.def_97 (not .def_96))) (let ((.def_98 (or .def_97 .def_95))) (let ((.def_99 (not A20))) (let ((.def_100 (= .def_5 .def_99))) (let ((.def_101 (and A9 A5))) (let ((.def_102 (not .def_101))) (let ((.def_103 (or .def_102 .def_100))) (let ((.def_104 (or .def_103 .def_98))) (let ((.def_105 (not .def_104))) (let ((.def_106 (and .def_105 .def_94))) (let ((.def_107 (and .def_106 .def_85))) (let ((.def_108 (= .def_107 .def_61))) (let ((.def_109 (not .def_108))) (let ((.def_110 (= A13 .def_8))) (let ((.def_111 (not .def_110))) (let ((.def_112 (not A6))) (let ((.def_113 (and .def_112 .def_1))) (let ((.def_114 (not .def_113))) (let ((.def_115 (and .def_114 .def_111))) (let ((.def_116 (not .def_115))) (let ((.def_117 (not A3))) (let ((.def_118 (or A11 .def_117))) (let ((.def_119 (= .def_11 A21))) (let ((.def_120 (not .def_119))) (let ((.def_121 (= .def_120 .def_118))) (let ((.def_122 (and .def_121 .def_116))) (let ((.def_123 (and .def_46 A1))) (let ((.def_124 (not A18))) (let ((.def_125 (and A10 .def_124))) (let ((.def_126 (not .def_125))) (let ((.def_127 (or .def_126 .def_123))) (let ((.def_128 (and .def_0 A1))) (let ((.def_129 (not .def_128))) (let ((.def_130 (or A13 A23))) (let ((.def_131 (not .def_130))) (let ((.def_132 (or .def_131 .def_129))) (let ((.def_133 (or .def_132 .def_127))) (let ((.def_134 (not .def_133))) (let ((.def_135 (or .def_134 .def_122))) (let ((.def_136 (and A17 A7))) (let ((.def_137 (not .def_136))) (let ((.def_138 (or .def_5 A3))) (let ((.def_139 (or .def_138 .def_137))) (let ((.def_140 (not .def_139))) (let ((.def_141 (= A15 .def_117))) (let ((.def_142 (not .def_141))) (let ((.def_143 (or .def_32 A13))) (let ((.def_144 (not .def_143))) (let ((.def_145 (and .def_144 .def_142))) (let ((.def_146 (not .def_145))) (let ((.def_147 (or .def_146 .def_140))) (let ((.def_148 (not .def_147))) (let ((.def_149 (not A22))) (let ((.def_150 (and .def_149 .def_0))) (let ((.def_151 (or .def_32 .def_25))) (let ((.def_152 (not .def_151))) (let ((.def_153 (or .def_152 .def_150))) (let ((.def_154 (not .def_153))) (let ((.def_155 (and .def_5 A1))) (let ((.def_156 (and A7 A24))) (let ((.def_157 (and .def_156 .def_155))) (let ((.def_158 (and .def_157 .def_154))) (let ((.def_159 (not .def_158))) (let ((.def_160 (or .def_159 .def_148))) (let ((.def_161 (not .def_160))) (let ((.def_162 (or .def_161 .def_135))) (let ((.def_163 (or A19 .def_11))) (let ((.def_164 (not .def_163))) (let ((.def_165 (not A5))) (let ((.def_166 (or .def_165 .def_32))) (let ((.def_167 (not .def_166))) (let ((.def_168 (and .def_167 .def_164))) (let ((.def_169 (not A13))) (let ((.def_170 (and .def_169 .def_36))) (let ((.def_171 (and .def_68 .def_36))) (let ((.def_172 (not .def_171))) (let ((.def_173 (or .def_172 .def_170))) (let ((.def_174 (and .def_173 .def_168))) (let ((.def_175 (not .def_174))) (let ((.def_176 (or .def_25 .def_169))) (let ((.def_177 (not .def_176))) (let ((.def_178 (or .def_149 A22))) (let ((.def_179 (not .def_178))) (let ((.def_180 (and .def_179 .def_177))) (let ((.def_181 (= A8 A6))) (let ((.def_182 (and .def_149 .def_25))) (let ((.def_183 (not .def_182))) (let ((.def_184 (and .def_183 .def_181))) (let ((.def_185 (and .def_184 .def_180))) (let ((.def_186 (not .def_185))) (let ((.def_187 (or .def_186 .def_175))) (let ((.def_188 (not .def_187))) (let ((.def_189 (and .def_32 A20))) (let ((.def_190 (or A12 A17))) (let ((.def_191 (not .def_190))) (let ((.def_192 (or .def_191 .def_189))) (let ((.def_193 (not .def_192))) (let ((.def_194 (and A21 A18))) (let ((.def_195 (not .def_194))) (let ((.def_196 (= .def_36 A10))) (let ((.def_197 (or .def_196 .def_195))) (let ((.def_198 (and .def_197 .def_193))) (let ((.def_199 (not .def_198))) (let ((.def_200 (not A8))) (let ((.def_201 (or .def_200 .def_22))) (let ((.def_202 (and A12 A0))) (let ((.def_203 (not .def_202))) (let ((.def_204 (and .def_203 .def_201))) (let ((.def_205 (not .def_204))) (let ((.def_206 (or A17 A12))) (let ((.def_207 (or .def_169 .def_25))) (let ((.def_208 (not .def_207))) (let ((.def_209 (or .def_208 .def_206))) (let ((.def_210 (not .def_209))) (let ((.def_211 (and .def_210 .def_205))) (let ((.def_212 (not .def_211))) (let ((.def_213 (or .def_212 .def_199))) (let ((.def_214 (not .def_213))) (let ((.def_215 (and .def_214 .def_188))) (let ((.def_216 (not .def_215))) (let ((.def_217 (= .def_216 .def_162))) (let ((.def_218 (not .def_217))) (let ((.def_219 (and .def_218 .def_109))) (let ((.def_220 (= .def_1 A3))) (let ((.def_221 (and .def_62 .def_220))) (let ((.def_222 (not .def_221))) (let ((.def_223 (and .def_36 .def_149))) (let ((.def_224 (not .def_223))) (let ((.def_225 (or .def_169 .def_63))) (let ((.def_226 (and .def_225 .def_224))) (let ((.def_227 (and .def_226 .def_222))) (let ((.def_228 (not .def_227))) (let ((.def_229 (and A3 .def_36))) (let ((.def_230 (and .def_45 .def_0))) (let ((.def_231 (or .def_230 .def_229))) (let ((.def_232 (and .def_124 A16))) (let ((.def_233 (not .def_232))) (let ((.def_234 (and A21 A16))) (let ((.def_235 (not .def_234))) (let ((.def_236 (and .def_235 .def_233))) (let ((.def_237 (and .def_236 .def_231))) (let ((.def_238 (not .def_237))) (let ((.def_239 (or .def_238 .def_228))) (let ((.def_240 (and A6 .def_4))) (let ((.def_241 (not .def_240))) (let ((.def_242 (and .def_0 .def_149))) (let ((.def_243 (not .def_242))) (let ((.def_244 (and .def_243 .def_241))) (let ((.def_245 (not .def_244))) (let ((.def_246 (or A11 A14))) (let ((.def_247 (not A1))) (let ((.def_248 (or .def_247 .def_4))) (let ((.def_249 (not .def_248))) (let ((.def_250 (and .def_249 .def_246))) (let ((.def_251 (and .def_250 .def_245))) (let ((.def_252 (not .def_251))) (let ((.def_253 (or A6 .def_200))) (let ((.def_254 (= A16 A22))) (let ((.def_255 (not .def_254))) (let ((.def_256 (or .def_255 .def_253))) (let ((.def_257 (and A12 A8))) (let ((.def_258 (= A22 A2))) (let ((.def_259 (not .def_258))) (let ((.def_260 (and .def_259 .def_257))) (let ((.def_261 (not .def_260))) (let ((.def_262 (and .def_261 .def_256))) (let ((.def_263 (and .def_262 .def_252))) (let ((.def_264 (or .def_263 .def_239))) (let ((.def_265 (not .def_264))) (let ((.def_266 (or A24 A9))) (let ((.def_267 (not .def_266))) (let ((.def_268 (or .def_32 A17))) (let ((.def_269 (or .def_268 .def_267))) (let ((.def_270 (not .def_269))) (let ((.def_271 (not A0))) (let ((.def_272 (and A9 .def_271))) (let ((.def_273 (not .def_272))) (let ((.def_274 (and A5 .def_169))) (let ((.def_275 (or .def_274 .def_273))) (let ((.def_276 (not .def_275))) (let ((.def_277 (and .def_276 .def_270))) (let ((.def_278 (or A11 .def_165))) (let ((.def_279 (not .def_278))) (let ((.def_280 (or .def_112 .def_46))) (let ((.def_281 (not .def_280))) (let ((.def_282 (and .def_281 .def_279))) (let ((.def_283 (not .def_282))) (let ((.def_284 (= .def_112 A10))) (let ((.def_285 (and A9 .def_0))) (let ((.def_286 (not .def_285))) (let ((.def_287 (or .def_286 .def_284))) (let ((.def_288 (or .def_287 .def_283))) (let ((.def_289 (not .def_288))) (let ((.def_290 (and .def_289 .def_277))) (let ((.def_291 (and A3 A24))) (let ((.def_292 (= .def_149 A2))) (let ((.def_293 (and .def_292 .def_291))) (let ((.def_294 (or A7 .def_63))) (let ((.def_295 (not .def_294))) (let ((.def_296 (and .def_0 A11))) (let ((.def_297 (or .def_296 .def_295))) (let ((.def_298 (not .def_297))) (let ((.def_299 (= .def_298 .def_293))) (let ((.def_300 (and .def_4 .def_25))) (let ((.def_301 (not .def_300))) (let ((.def_302 (and A21 .def_165))) (let ((.def_303 (not .def_302))) (let ((.def_304 (or .def_303 .def_301))) (let ((.def_305 (or .def_68 A14))) (let ((.def_306 (and .def_149 .def_112))) (let ((.def_307 (not .def_306))) (let ((.def_308 (and .def_307 .def_305))) (let ((.def_309 (not .def_308))) (let ((.def_310 (and .def_309 .def_304))) (let ((.def_311 (not .def_310))) (let ((.def_312 (and .def_311 .def_299))) (let ((.def_313 (not .def_312))) (let ((.def_314 (= .def_313 .def_290))) (let ((.def_315 (and .def_314 .def_265))) (let ((.def_316 (not .def_315))) (let ((.def_317 (= A13 .def_200))) (let ((.def_318 (and A1 .def_32))) (let ((.def_319 (not .def_318))) (let ((.def_320 (or .def_319 .def_317))) (let ((.def_321 (or A4 A12))) (let ((.def_322 (not .def_321))) (let ((.def_323 (or A23 .def_124))) (let ((.def_324 (and .def_323 .def_322))) (let ((.def_325 (not .def_324))) (let ((.def_326 (= .def_325 .def_320))) (let ((.def_327 (or .def_25 .def_46))) (let ((.def_328 (or .def_72 .def_46))) (let ((.def_329 (or .def_328 .def_327))) (let ((.def_330 (not .def_329))) (let ((.def_331 (and A13 A3))) (let ((.def_332 (not .def_331))) (let ((.def_333 (or A5 A14))) (let ((.def_334 (not .def_333))) (let ((.def_335 (or .def_334 .def_332))) (let ((.def_336 (not .def_335))) (let ((.def_337 (and .def_336 .def_330))) (let ((.def_338 (not .def_337))) (let ((.def_339 (and .def_338 .def_326))) (let ((.def_340 (or A3 .def_99))) (let ((.def_341 (and A20 .def_72))) (let ((.def_342 (or .def_341 .def_340))) (let ((.def_343 (not .def_342))) (let ((.def_344 (and .def_63 A11))) (let ((.def_345 (or A5 .def_169))) (let ((.def_346 (not .def_345))) (let ((.def_347 (or .def_346 .def_344))) (let ((.def_348 (or .def_347 .def_343))) (let ((.def_349 (not .def_348))) (let ((.def_350 (= .def_99 .def_22))) (let ((.def_351 (or A20 A2))) (let ((.def_352 (and .def_351 .def_350))) (let ((.def_353 (and A3 A8))) (let ((.def_354 (and .def_117 .def_169))) (let ((.def_355 (and .def_354 .def_353))) (let ((.def_356 (not .def_355))) (let ((.def_357 (and .def_356 .def_352))) (let ((.def_358 (not .def_357))) (let ((.def_359 (or .def_358 .def_349))) (let ((.def_360 (not .def_359))) (let ((.def_361 (or .def_360 .def_339))) (let ((.def_362 (not .def_361))) (let ((.def_363 (or A24 A19))) (let ((.def_364 (or A0 .def_36))) (let ((.def_365 (not .def_364))) (let ((.def_366 (or .def_365 .def_363))) (let ((.def_367 (or A7 A14))) (let ((.def_368 (not .def_367))) (let ((.def_369 (and A1 .def_149))) (let ((.def_370 (not .def_369))) (let ((.def_371 (or .def_370 .def_368))) (let ((.def_372 (and .def_371 .def_366))) (let ((.def_373 (not .def_372))) (let ((.def_374 (and .def_112 .def_0))) (let ((.def_375 (and .def_25 .def_63))) (let ((.def_376 (not .def_375))) (let ((.def_377 (and .def_376 .def_374))) (let ((.def_378 (and A7 A5))) (let ((.def_379 (or A12 .def_36))) (let ((.def_380 (or .def_379 .def_378))) (let ((.def_381 (not .def_380))) (let ((.def_382 (or .def_381 .def_377))) (let ((.def_383 (not .def_382))) (let ((.def_384 (and .def_383 .def_373))) (let ((.def_385 (not .def_384))) (let ((.def_386 (or .def_11 .def_8))) (let ((.def_387 (not .def_386))) (let ((.def_388 (or A15 A6))) (let ((.def_389 (and .def_388 .def_387))) (let ((.def_390 (or A7 .def_8))) (let ((.def_391 (not .def_390))) (let ((.def_392 (and A23 .def_36))) (let ((.def_393 (and .def_392 .def_391))) (let ((.def_394 (and .def_393 .def_389))) (let ((.def_395 (and A10 A15))) (let ((.def_396 (not .def_395))) (let ((.def_397 (or A8 A18))) (let ((.def_398 (or .def_397 .def_396))) (let ((.def_399 (= A10 .def_68))) (let ((.def_400 (not .def_399))) (let ((.def_401 (= .def_165 A17))) (let ((.def_402 (or .def_401 .def_400))) (let ((.def_403 (or .def_402 .def_398))) (let ((.def_404 (not .def_403))) (let ((.def_405 (= .def_404 .def_394))) (let ((.def_406 (and .def_405 .def_385))) (let ((.def_407 (not .def_406))) (let ((.def_408 (and .def_407 .def_362))) (let ((.def_409 (or .def_408 .def_316))) (let ((.def_410 (not .def_409))) (let ((.def_411 (and .def_410 .def_219))) (let ((.def_412 (not .def_411))) .def_412))))))))))))))))))))))))))))))))))))))))))))))))))))))))))))))))))))))))))))))))))))))))))))))))))))))))))))))))))))))))))))))))))))))))))))))))))))))))))))))))))))))))))))))))))))))))))))))))))))))))))))))))))))))))))))))))))))))))))))))))))))))))))))))))))))))))))))))))))))))))))))))))))))))))))))))))))))))))))))))))))))))))))))))))))))))))))))))))))))))))))))))))))))))))))))))))))))))))))))))))))))))))))))))
(check-sat)
